n_machines = 10;
n_resources = 12;
n_jobs = 28;
horizon = 17598;
LB = 2917;
n_jobs_per_resource = [3, 3, 4, 1, 2, 1, 4, 4, 1, 1, 1, 3];
duration = [965, 918, 734, 61, 677, 680, 335, 295, 373, 321, 678, 995, 434, 578, 720, 832, 896, 469, 474, 998, 706, 163, 409, 805, 656, 809, 977, 640]